p wcnf 155 78 79 
1 -99 129 0 
1 17 -143 0 
1 -142 24 0 
1 62 -26 0 
1 109 -66 0 
1 93 62 0 
1 18 137 0 
1 116 -80 0 
1 -30 -116 0 
1 100 87 0 
1 -114 13 0 
1 -91 74 0 
1 -129 79 0 
1 100 -93 0 
1 -17 102 0 
1 -146 89 0 
1 -141 -32 0 
1 -60 -153 0 
1 -88 -21 0 
1 33 -85 0 
1 5 -11 0 
1 143 108 0 
1 131 130 0 
1 -137 106 0 
1 -16 18 0 
1 108 154 0 
1 143 -103 0 
1 -7 -30 0 
1 -38 -136 0 
1 -74 119 0 
1 5 -60 0 
1 -68 3 0 
1 -151 -142 0 
1 56 58 0 
1 -127 105 0 
1 26 -27 0 
1 -67 130 0 
1 -56 -98 0 
1 93 128 0 
1 -42 51 0 
1 -23 15 0 
1 99 62 0 
1 -131 104 0 
1 49 -54 0 
1 76 97 0 
1 126 27 0 
1 -88 86 0 
1 -105 153 0 
1 -67 14 0 
1 -60 62 0 
1 107 -43 0 
1 124 -57 0 
1 -16 76 0 
1 -82 -112 0 
1 -86 -5 0 
1 153 -80 0 
1 148 74 0 
1 134 -46 0 
1 -2 -36 0 
1 15 -51 0 
1 121 -149 0 
1 -82 106 0 
1 -125 42 0 
1 82 61 0 
1 -27 108 0 
1 76 -140 0 
1 139 -46 0 
1 -36 -143 0 
1 44 -127 0 
1 -45 26 0 
1 -147 119 0 
1 130 -1 0 
1 105 119 0 
1 -135 149 0 
1 68 139 0 
1 -151 -82 0 
1 31 128 0 
1 7 -68 0 
